c
c start with comments
c
p cnf 20 38
18 -3 4 -1 0
4 14 4 15 0
11 11 1 -10 14 0
-19 -20 -11 0
-13 5 -1 0
16 -5 -18 3 -13 0
-16 14 14 -9 -4 17 0
-7 8 16 0
-16 -4 4 16 0
-16 -19 18 -10 -18 0
1 -7 -13 0
-9 -7 15 4 5 -11 0
7 -2 1 -12 -20 0
-14 9 4 0
-5 -13 2 0
-18 -18 19 15 -15 0
18 13 -20 -2 0
15 -11 0
8 -1 9 0
6 -9 0
-9 -10 3 -4 0
5 -5 -7 5 0
-11 16 0
-12 10 -19 0
-20 -18 11 0
-19 -10 0
-17 -13 -7 -13 -11 0
-6 -14 11 -12 7 0
-8 -1 -18 -7 0
13 18 -3 9 0
4 9 7 -14 0
6 12 11 -17 4 11 0
7 18 -16 0
-10 12 3 3 0
-18 12 -4 -6 0
18 -5 5 16 0
-19 11 11 10 9 0
12 9 0